2023/11/29
gurobi is now 11.0.0
previous version was 10.0.3
solving instance knapsack 50 2 square
Couenne 0.5.8 -- an Open-Source solver for Mixed Integer Nonlinear Optimization
Mailing list: couenne@list.coin-or.org
Instructions: http://www.coin-or.org/Couenne
couenne: 
ANALYSIS TEST: Couenne: new cutoff value -3.3676407331e+00 (0.012046 seconds)
NLP0012I 
              Num      Status      Obj             It       time                 Location
NLP0014I             1         OPT -1619.204     1747 4.587594
Couenne: new cutoff value -1.6192039759e+03 (4.62028 seconds)
NLP0014I             2         OPT -1619.7126       28 0.060836
Couenne: new cutoff value -1.6197126309e+03 (4.68194 seconds)
Loaded instance "/tmp/jl_NsPmfy/model.nl"
Constraints:          151
Variables:            150 (50 integer)
Auxiliaries:           52 (0 integer)

Coin0506I Presolve 302 (-50) rows, 151 (-51) columns and 701 (-100) elements
Clp0006I 0  Obj -1812.2894 Primal inf 15809.654 (50)
Clp0006I 60  Obj -1812.2894 Primal inf 9218.3196 (32)
Clp0006I 122  Obj -1630.7026 Primal inf 705.14459 (8)
Clp0006I 133  Obj -1623.9421
Clp0000I Optimal - objective value -1623.9421
Clp0032I Optimal objective -1623.942095 - 133 iterations time 0.002, Presolve 0.00
Clp0000I Optimal - objective value -1623.9421
NLP Heuristic: time limit reached.
Clp0000I Optimal - objective value -1623.9421
Optimality Based BT: 5 improved bounds
Probing: 0 improved bounds
NLP Heuristic: no solution.
Cbc0031I 1 added rows had average density of 2
Cbc0013I At root node, 1 cuts changed objective from -1623.9421 to -1623.1485 in 2 passes
Cbc0014I Cut generator 0 (Couenne convexifier cuts) - 1 row cuts average 2.0 elements, 43 column cuts (43 active)
Cbc0010I After 0 nodes, 1 on tree, 1e+50 best solution, best possible -1.7976931e+308 (0.15 seconds)
Optimality Based BT: 24 improved bounds
Optimality Based BT: 26 improved bounds
Optimality Based BT: 24 improved bounds
Optimality Based BT: 14 improved bounds
Optimality Based BT: 24 improved bounds
Couenne: new cutoff value -1.6209309885e+03 (6.01548 seconds)
Cbc0001I Search completed - best objective 1e+50, took 647 iterations and 98 nodes (1.40 seconds)
Cbc0035I Maximum depth 31, 0 variables fixed on reduced cost

 	"Finished"

Linearization cuts added at root node:        352
Linearization cuts added in total:            352  (separation time: 0.000805s)
Total solve time:                         1.40081s (1.40081s in branch-and-bound)
Lower bound:                             -1620.93
Upper bound:                             -1620.93  (gap: 0.00%)
Branch-and-bound nodes:                        98
Stats: /tmp/jl_NsPmfy/model.nl  150 [var]   50 [int]  151 [con]   52 [aux]    352 [root]      352 [tot] 0.000805 [sep]  1.40081 [time]   1.4011 [bb]        -1.620931e+03 [lower]        -1.620931e+03 [upper]      98 [nodes]
Performance of                           FBBT:	    0.00872s,       97 runs. fix:   0.006902 shrnk:    41.9193 ubd:          0 2ubd:          1 infeas:          0
Performance of                           OBBT:	   0.431505s,        6 runs. fix:   0.842105 shrnk:     54.382 ubd:          0 2ubd:          1 infeas:          0
primal_bound = -1620.9309885447792, dual_bound = 0.0, gap = 100.0, time = 9.84
